c 
c G(k,n,p) graph
c graph gen seed     : 4729
c number of vertices : 60
c max number of edges: 900
c number of classes  : 2
c edge density       : 0.200000
c edge probability   : 0.400000
c data structure     : sparse
c
c           Graph Stats
c number of vertices  : 60
c nonisolated vertices: 60
c number of edges     : 361
c edge density        : 0.203955
c max degree          : 19
c avg degree          : 12.03
c min degree          : 7
p col 60 361
e 1 55
e 1 51
e 1 50
e 1 46
e 1 45
e 1 41
e 1 30
e 1 29
e 1 22
e 1 18
e 1 14
e 1 12
e 1 11
e 1 6
e 2 56
e 2 53
e 2 43
e 2 40
e 2 38
e 2 25
e 2 21
e 2 16
e 2 7
e 2 5
e 3 57
e 3 44
e 3 42
e 3 39
e 3 38
e 3 28
e 3 27
e 3 23
e 3 16
e 3 15
e 3 10
e 3 7
e 3 5
e 4 57
e 4 42
e 4 40
e 4 38
e 4 36
e 4 27
e 4 24
e 4 20
e 4 15
e 4 8
e 4 7
e 5 60
e 5 58
e 5 52
e 5 50
e 5 35
e 5 31
e 5 26
e 5 22
e 5 17
e 5 14
e 5 13
e 5 11
e 5 9
e 5 6
e 6 57
e 6 54
e 6 44
e 6 42
e 6 39
e 6 38
e 6 34
e 6 33
e 6 25
e 6 24
e 6 21
e 6 15
e 6 10
e 6 7
e 7 60
e 7 50
e 7 48
e 7 45
e 7 41
e 7 35
e 7 12
e 7 9
e 8 55
e 8 49
e 8 48
e 8 26
e 8 17
e 8 11
e 9 37
e 9 32
e 9 27
e 9 25
e 9 23
e 9 21
e 9 20
e 9 19
e 10 58
e 10 52
e 10 50
e 10 49
e 10 48
e 10 47
e 10 46
e 10 41
e 10 35
e 10 30
e 10 14
e 10 13
e 11 43
e 11 40
e 11 38
e 11 28
e 11 25
e 11 20
e 11 19
e 11 15
e 12 56
e 12 39
e 12 38
e 12 37
e 12 36
e 12 33
e 12 23
e 12 20
e 13 57
e 13 54
e 13 53
e 13 40
e 13 38
e 13 37
e 13 36
e 13 33
e 13 27
e 13 21
e 13 15
e 14 56
e 14 42
e 14 40
e 14 36
e 14 34
e 14 24
e 14 21
e 14 20
e 14 19
e 14 15
e 15 59
e 15 51
e 15 46
e 15 29
e 15 26
e 15 22
e 15 17
e 16 60
e 16 51
e 16 45
e 16 41
e 16 35
e 16 31
e 16 30
e 16 29
e 16 26
e 16 22
e 16 17
e 17 54
e 17 53
e 17 44
e 17 42
e 17 40
e 17 39
e 17 38
e 17 36
e 17 34
e 17 25
e 17 23
e 17 21
e 18 57
e 18 53
e 18 44
e 18 39
e 18 38
e 18 37
e 18 36
e 18 27
e 18 25
e 18 24
e 19 51
e 19 50
e 19 49
e 19 46
e 19 29
e 20 60
e 20 55
e 20 52
e 20 48
e 20 47
e 20 46
e 20 45
e 20 35
e 20 30
e 20 29
e 21 55
e 21 51
e 21 47
e 21 46
e 21 45
e 21 22
e 22 57
e 22 54
e 22 42
e 22 36
e 22 34
e 22 28
e 22 24
e 22 23
e 23 50
e 23 49
e 23 48
e 23 46
e 23 45
e 23 41
e 23 35
e 24 59
e 24 52
e 24 51
e 24 50
e 24 49
e 24 48
e 24 31
e 25 58
e 25 51
e 25 45
e 25 35
e 25 30
e 25 29
e 26 56
e 26 44
e 26 43
e 26 42
e 26 38
e 26 32
e 26 28
e 27 58
e 27 55
e 27 51
e 27 50
e 27 49
e 27 48
e 27 29
e 28 49
e 28 46
e 28 41
e 28 35
e 29 56
e 29 54
e 29 53
e 29 44
e 29 43
e 29 42
e 29 39
e 29 37
e 29 34
e 29 32
e 30 42
e 30 39
e 30 37
e 30 36
e 30 32
e 31 57
e 31 56
e 31 40
e 31 39
e 31 38
e 31 37
e 32 58
e 32 51
e 32 48
e 32 41
e 33 59
e 33 55
e 33 51
e 33 50
e 33 41
e 34 60
e 34 55
e 34 48
e 34 46
e 34 45
e 34 41
e 35 54
e 35 43
e 35 39
e 35 36
e 36 60
e 36 55
e 36 52
e 36 41
e 37 59
e 37 58
e 37 55
e 37 50
e 37 49
e 37 48
e 37 47
e 37 46
e 38 60
e 38 58
e 38 55
e 38 52
e 38 51
e 38 50
e 38 49
e 38 45
e 39 52
e 39 50
e 39 49
e 39 45
e 39 41
e 40 59
e 40 55
e 40 50
e 40 49
e 41 54
e 41 44
e 42 59
e 42 51
e 42 50
e 42 47
e 42 45
e 43 60
e 43 55
e 43 52
e 43 51
e 43 47
e 44 60
e 44 58
e 44 47
e 45 56
e 46 56
e 47 57
e 47 56
e 47 54
e 47 53
e 48 57
e 48 54
e 49 57
e 49 56
e 49 54
e 51 57
e 51 56
e 51 54
e 52 53
e 53 60
e 53 59
e 53 55
e 54 58
e 55 57
e 55 56
e 56 60
e 57 59
